c File: flat50_3_0.col
c
c SOURCE: Joseph Culberson (joe@cs.ualberta.ca)
c DESCRIPTION: Quasi-random coloring problem
c              generated with flatness = 0
c                             probability = 0.139
c                             known coloring = 3
c                             random seed = 1417
c              Creation Date:  Tue Jun  9 12:08:49 1998
c Maximum degree = 7 Minimum degree = 1
c p edge 50 115
c cnf created by edge2cnf
p cnf 150 545
-1 -2 0
-1 -3 0
-2 -3 0
1 2 3 0
-4 -5 0
-4 -6 0
-5 -6 0
4 5 6 0
-7 -8 0
-7 -9 0
-8 -9 0
7 8 9 0
-10 -11 0
-10 -12 0
-11 -12 0
10 11 12 0
-13 -14 0
-13 -15 0
-14 -15 0
13 14 15 0
-16 -17 0
-16 -18 0
-17 -18 0
16 17 18 0
-19 -20 0
-19 -21 0
-20 -21 0
19 20 21 0
-22 -23 0
-22 -24 0
-23 -24 0
22 23 24 0
-25 -26 0
-25 -27 0
-26 -27 0
25 26 27 0
-28 -29 0
-28 -30 0
-29 -30 0
28 29 30 0
-31 -32 0
-31 -33 0
-32 -33 0
31 32 33 0
-34 -35 0
-34 -36 0
-35 -36 0
34 35 36 0
-37 -38 0
-37 -39 0
-38 -39 0
37 38 39 0
-40 -41 0
-40 -42 0
-41 -42 0
40 41 42 0
-43 -44 0
-43 -45 0
-44 -45 0
43 44 45 0
-46 -47 0
-46 -48 0
-47 -48 0
46 47 48 0
-49 -50 0
-49 -51 0
-50 -51 0
49 50 51 0
-52 -53 0
-52 -54 0
-53 -54 0
52 53 54 0
-55 -56 0
-55 -57 0
-56 -57 0
55 56 57 0
-58 -59 0
-58 -60 0
-59 -60 0
58 59 60 0
-61 -62 0
-61 -63 0
-62 -63 0
61 62 63 0
-64 -65 0
-64 -66 0
-65 -66 0
64 65 66 0
-67 -68 0
-67 -69 0
-68 -69 0
67 68 69 0
-70 -71 0
-70 -72 0
-71 -72 0
70 71 72 0
-73 -74 0
-73 -75 0
-74 -75 0
73 74 75 0
-76 -77 0
-76 -78 0
-77 -78 0
76 77 78 0
-79 -80 0
-79 -81 0
-80 -81 0
79 80 81 0
-82 -83 0
-82 -84 0
-83 -84 0
82 83 84 0
-85 -86 0
-85 -87 0
-86 -87 0
85 86 87 0
-88 -89 0
-88 -90 0
-89 -90 0
88 89 90 0
-91 -92 0
-91 -93 0
-92 -93 0
91 92 93 0
-94 -95 0
-94 -96 0
-95 -96 0
94 95 96 0
-97 -98 0
-97 -99 0
-98 -99 0
97 98 99 0
-100 -101 0
-100 -102 0
-101 -102 0
100 101 102 0
-103 -104 0
-103 -105 0
-104 -105 0
103 104 105 0
-106 -107 0
-106 -108 0
-107 -108 0
106 107 108 0
-109 -110 0
-109 -111 0
-110 -111 0
109 110 111 0
-112 -113 0
-112 -114 0
-113 -114 0
112 113 114 0
-115 -116 0
-115 -117 0
-116 -117 0
115 116 117 0
-118 -119 0
-118 -120 0
-119 -120 0
118 119 120 0
-121 -122 0
-121 -123 0
-122 -123 0
121 122 123 0
-124 -125 0
-124 -126 0
-125 -126 0
124 125 126 0
-127 -128 0
-127 -129 0
-128 -129 0
127 128 129 0
-130 -131 0
-130 -132 0
-131 -132 0
130 131 132 0
-133 -134 0
-133 -135 0
-134 -135 0
133 134 135 0
-136 -137 0
-136 -138 0
-137 -138 0
136 137 138 0
-139 -140 0
-139 -141 0
-140 -141 0
139 140 141 0
-142 -143 0
-142 -144 0
-143 -144 0
142 143 144 0
-145 -146 0
-145 -147 0
-146 -147 0
145 146 147 0
-148 -149 0
-148 -150 0
-149 -150 0
148 149 150 0
-85 -1 0
-86 -2 0
-87 -3 0
-88 -1 0
-89 -2 0
-90 -3 0
-112 -1 0
-113 -2 0
-114 -3 0
-115 -1 0
-116 -2 0
-117 -3 0
-127 -1 0
-128 -2 0
-129 -3 0
-136 -1 0
-137 -2 0
-138 -3 0
-73 -4 0
-74 -5 0
-75 -6 0
-118 -4 0
-119 -5 0
-120 -6 0
-127 -4 0
-128 -5 0
-129 -6 0
-79 -7 0
-80 -8 0
-81 -9 0
-82 -7 0
-83 -8 0
-84 -9 0
-115 -7 0
-116 -8 0
-117 -9 0
-142 -7 0
-143 -8 0
-144 -9 0
-55 -10 0
-56 -11 0
-57 -12 0
-82 -10 0
-83 -11 0
-84 -12 0
-85 -10 0
-86 -11 0
-87 -12 0
-94 -10 0
-95 -11 0
-96 -12 0
-118 -10 0
-119 -11 0
-120 -12 0
-127 -10 0
-128 -11 0
-129 -12 0
-148 -10 0
-149 -11 0
-150 -12 0
-55 -13 0
-56 -14 0
-57 -15 0
-58 -13 0
-59 -14 0
-60 -15 0
-76 -13 0
-77 -14 0
-78 -15 0
-106 -13 0
-107 -14 0
-108 -15 0
-97 -16 0
-98 -17 0
-99 -18 0
-142 -16 0
-143 -17 0
-144 -18 0
-76 -19 0
-77 -20 0
-78 -21 0
-91 -19 0
-92 -20 0
-93 -21 0
-97 -19 0
-98 -20 0
-99 -21 0
-100 -19 0
-101 -20 0
-102 -21 0
-103 -19 0
-104 -20 0
-105 -21 0
-136 -19 0
-137 -20 0
-138 -21 0
-79 -22 0
-80 -23 0
-81 -24 0
-91 -22 0
-92 -23 0
-93 -24 0
-94 -22 0
-95 -23 0
-96 -24 0
-124 -22 0
-125 -23 0
-126 -24 0
-133 -22 0
-134 -23 0
-135 -24 0
-136 -22 0
-137 -23 0
-138 -24 0
-52 -25 0
-53 -26 0
-54 -27 0
-55 -25 0
-56 -26 0
-57 -27 0
-91 -25 0
-92 -26 0
-93 -27 0
-106 -25 0
-107 -26 0
-108 -27 0
-130 -25 0
-131 -26 0
-132 -27 0
-148 -25 0
-149 -26 0
-150 -27 0
-61 -28 0
-62 -29 0
-63 -30 0
-85 -28 0
-86 -29 0
-87 -30 0
-73 -31 0
-74 -32 0
-75 -33 0
-118 -31 0
-119 -32 0
-120 -33 0
-139 -31 0
-140 -32 0
-141 -33 0
-52 -34 0
-53 -35 0
-54 -36 0
-70 -34 0
-71 -35 0
-72 -36 0
-79 -34 0
-80 -35 0
-81 -36 0
-97 -34 0
-98 -35 0
-99 -36 0
-133 -34 0
-134 -35 0
-135 -36 0
-139 -34 0
-140 -35 0
-141 -36 0
-61 -37 0
-62 -38 0
-63 -39 0
-148 -37 0
-149 -38 0
-150 -39 0
-58 -40 0
-59 -41 0
-60 -42 0
-124 -40 0
-125 -41 0
-126 -42 0
-133 -40 0
-134 -41 0
-135 -42 0
-136 -40 0
-137 -41 0
-138 -42 0
-61 -43 0
-62 -44 0
-63 -45 0
-64 -43 0
-65 -44 0
-66 -45 0
-70 -43 0
-71 -44 0
-72 -45 0
-109 -43 0
-110 -44 0
-111 -45 0
-139 -43 0
-140 -44 0
-141 -45 0
-145 -43 0
-146 -44 0
-147 -45 0
-58 -46 0
-59 -47 0
-60 -48 0
-94 -46 0
-95 -47 0
-96 -48 0
-97 -46 0
-98 -47 0
-99 -48 0
-112 -46 0
-113 -47 0
-114 -48 0
-133 -46 0
-134 -47 0
-135 -48 0
-55 -49 0
-56 -50 0
-57 -51 0
-58 -49 0
-59 -50 0
-60 -51 0
-109 -49 0
-110 -50 0
-111 -51 0
-124 -49 0
-125 -50 0
-126 -51 0
-139 -49 0
-140 -50 0
-141 -51 0
-106 -52 0
-107 -53 0
-108 -54 0
-121 -55 0
-122 -56 0
-123 -57 0
-133 -55 0
-134 -56 0
-135 -57 0
-145 -55 0
-146 -56 0
-147 -57 0
-109 -58 0
-110 -59 0
-111 -60 0
-121 -58 0
-122 -59 0
-123 -60 0
-124 -58 0
-125 -59 0
-126 -60 0
-115 -61 0
-116 -62 0
-117 -63 0
-142 -61 0
-143 -62 0
-144 -63 0
-145 -61 0
-146 -62 0
-147 -63 0
-148 -61 0
-149 -62 0
-150 -63 0
-118 -64 0
-119 -65 0
-120 -66 0
-133 -64 0
-134 -65 0
-135 -66 0
-148 -64 0
-149 -65 0
-150 -66 0
-109 -67 0
-110 -68 0
-111 -69 0
-112 -67 0
-113 -68 0
-114 -69 0
-133 -67 0
-134 -68 0
-135 -69 0
-139 -67 0
-140 -68 0
-141 -69 0
-106 -70 0
-107 -71 0
-108 -72 0
-121 -70 0
-122 -71 0
-123 -72 0
-127 -70 0
-128 -71 0
-129 -72 0
-142 -70 0
-143 -71 0
-144 -72 0
-112 -73 0
-113 -74 0
-114 -75 0
-142 -73 0
-143 -74 0
-144 -75 0
-103 -76 0
-104 -77 0
-105 -78 0
-115 -76 0
-116 -77 0
-117 -78 0
-127 -79 0
-128 -80 0
-129 -81 0
-130 -82 0
-131 -83 0
-132 -84 0
-115 -85 0
-116 -86 0
-117 -87 0
-115 -88 0
-116 -89 0
-117 -90 0
-136 -88 0
-137 -89 0
-138 -90 0
-142 -88 0
-143 -89 0
-144 -90 0
-103 -91 0
-104 -92 0
-105 -93 0
-118 -91 0
-119 -92 0
-120 -93 0
-103 -94 0
-104 -95 0
-105 -96 0
-148 -94 0
-149 -95 0
-150 -96 0
-109 -97 0
-110 -98 0
-111 -99 0
-124 -97 0
-125 -98 0
-126 -99 0
